(set-logic QF_UF)
(declare-fun A0 () Bool)
(declare-fun A1 () Bool)
(declare-fun A2 () Bool)
(declare-fun A3 () Bool)
(declare-fun A4 () Bool)
(declare-fun A5 () Bool)
(declare-fun A6 () Bool)
(declare-fun A7 () Bool)
(declare-fun A8 () Bool)
(declare-fun A9 () Bool)
(declare-fun A10 () Bool)
(declare-fun A11 () Bool)
(declare-fun A12 () Bool)
(declare-fun A13 () Bool)
(declare-fun A14 () Bool)
(declare-fun A15 () Bool)
(declare-fun A16 () Bool)
(declare-fun A17 () Bool)
(declare-fun A18 () Bool)
(declare-fun A19 () Bool)
(declare-fun A20 () Bool)
(declare-fun A21 () Bool)
(declare-fun A22 () Bool)
(declare-fun A23 () Bool)
(assert (let ((.def_0 (or A8 A17))) (let ((.def_1 (not A10))) (let ((.def_2 (not A0))) (let ((.def_3 (or .def_2 .def_1))) (let ((.def_4 (and .def_3 .def_0))) (let ((.def_5 (not .def_4))) (let ((.def_6 (or .def_2 A3))) (let ((.def_7 (or A1 A6))) (let ((.def_8 (not .def_7))) (let ((.def_9 (= .def_8 .def_6))) (let ((.def_10 (and .def_9 .def_5))) (let ((.def_11 (not .def_10))) (let ((.def_12 (or A19 .def_2))) (let ((.def_13 (not .def_12))) (let ((.def_14 (not A11))) (let ((.def_15 (or .def_14 A1))) (let ((.def_16 (and .def_15 .def_13))) (let ((.def_17 (not A15))) (let ((.def_18 (not A21))) (let ((.def_19 (or .def_18 .def_17))) (let ((.def_20 (not .def_19))) (let ((.def_21 (not A18))) (let ((.def_22 (and .def_21 A6))) (let ((.def_23 (and .def_22 .def_20))) (let ((.def_24 (not .def_23))) (let ((.def_25 (and .def_24 .def_16))) (let ((.def_26 (not .def_25))) (let ((.def_27 (or .def_26 .def_11))) (let ((.def_28 (not .def_27))) (let ((.def_29 (not A4))) (let ((.def_30 (or .def_18 .def_29))) (let ((.def_31 (not A3))) (let ((.def_32 (and .def_31 .def_21))) (let ((.def_33 (and .def_32 .def_30))) (let ((.def_34 (not .def_33))) (let ((.def_35 (or A2 A16))) (let ((.def_36 (not A9))) (let ((.def_37 (not A16))) (let ((.def_38 (and .def_37 .def_36))) (let ((.def_39 (and .def_38 .def_35))) (let ((.def_40 (not .def_39))) (let ((.def_41 (and .def_40 .def_34))) (let ((.def_42 (or A5 A14))) (let ((.def_43 (not .def_42))) (let ((.def_44 (or .def_1 .def_37))) (let ((.def_45 (= .def_44 .def_43))) (let ((.def_46 (not .def_45))) (let ((.def_47 (not A23))) (let ((.def_48 (and A10 .def_47))) (let ((.def_49 (not .def_48))) (let ((.def_50 (and A22 .def_29))) (let ((.def_51 (not .def_50))) (let ((.def_52 (and .def_51 .def_49))) (let ((.def_53 (and .def_52 .def_46))) (let ((.def_54 (= .def_53 .def_41))) (let ((.def_55 (or .def_54 .def_28))) (let ((.def_56 (not .def_55))) (let ((.def_57 (not A14))) (let ((.def_58 (and .def_57 .def_1))) (let ((.def_59 (not A5))) (let ((.def_60 (not A2))) (let ((.def_61 (or .def_60 .def_59))) (let ((.def_62 (or .def_61 .def_58))) (let ((.def_63 (= A1 A0))) (let ((.def_64 (not .def_63))) (let ((.def_65 (or A19 A21))) (let ((.def_66 (not .def_65))) (let ((.def_67 (or .def_66 .def_64))) (let ((.def_68 (or .def_67 .def_62))) (let ((.def_69 (not .def_68))) (let ((.def_70 (or .def_47 A12))) (let ((.def_71 (or .def_31 .def_36))) (let ((.def_72 (not .def_71))) (let ((.def_73 (or .def_72 .def_70))) (let ((.def_74 (not .def_73))) (let ((.def_75 (or A19 .def_60))) (let ((.def_76 (not .def_75))) (let ((.def_77 (or A7 A20))) (let ((.def_78 (not .def_77))) (let ((.def_79 (and .def_78 .def_76))) (let ((.def_80 (not .def_79))) (let ((.def_81 (or .def_80 .def_74))) (let ((.def_82 (or .def_81 .def_69))) (let ((.def_83 (not .def_82))) (let ((.def_84 (or .def_14 A13))) (let ((.def_85 (or A23 .def_17))) (let ((.def_86 (not .def_85))) (let ((.def_87 (or .def_86 .def_84))) (let ((.def_88 (not .def_87))) (let ((.def_89 (or A13 A22))) (let ((.def_90 (not .def_89))) (let ((.def_91 (or A18 A23))) (let ((.def_92 (or .def_91 .def_90))) (let ((.def_93 (not .def_92))) (let ((.def_94 (and .def_93 .def_88))) (let ((.def_95 (not .def_94))) (let ((.def_96 (= A19 .def_17))) (let ((.def_97 (not .def_96))) (let ((.def_98 (not A22))) (let ((.def_99 (and A6 .def_98))) (let ((.def_100 (not .def_99))) (let ((.def_101 (and .def_100 .def_97))) (let ((.def_102 (not .def_101))) (let ((.def_103 (not A1))) (let ((.def_104 (or .def_103 .def_59))) (let ((.def_105 (not .def_104))) (let ((.def_106 (= .def_103 A15))) (let ((.def_107 (not .def_106))) (let ((.def_108 (and .def_107 .def_105))) (let ((.def_109 (not .def_108))) (let ((.def_110 (or .def_109 .def_102))) (let ((.def_111 (or .def_110 .def_95))) (let ((.def_112 (not .def_111))) (let ((.def_113 (and .def_112 .def_83))) (let ((.def_114 (not .def_113))) (let ((.def_115 (and .def_114 .def_56))) .def_115)))))))))))))))))))))))))))))))))))))))))))))))))))))))))))))))))))))))))))))))))))))))))))))))))))))))))))))))))))))
(check-sat)
